1      40.00      50.00       0.00       0.00     960.00       0.00
2      25.00      85.00      20.00     591.00     874.00      10.00
3      22.00      75.00      30.00      73.00     350.00      10.00
4      22.00      85.00      10.00     473.00     588.00      10.00
5      20.00      80.00      40.00     418.00     913.00      10.00
6      20.00      85.00      20.00      40.00     390.00      10.00
7      18.00      75.00      20.00     249.00     646.00      10.00
8      15.00      75.00      20.00     281.00     438.00      10.00
9      15.00      80.00      10.00     272.00     581.00      10.00
10      10.00      35.00      20.00     236.00     625.00      10.00
11      10.00      40.00      30.00     470.00     687.00      10.00
12       8.00      40.00      40.00      33.00     510.00      10.00
13       8.00      45.00      20.00     166.00     399.00      10.00
14       5.00      35.00      10.00     359.00     911.00      10.00
15       5.00      45.00      10.00      35.00     457.00      10.00
16       2.00      40.00      20.00      39.00     538.00      10.00
17       0.00      40.00      20.00     214.00     415.00      10.00
18       0.00      45.00      20.00     359.00     909.00      10.00
19      44.00       5.00      20.00     338.00     451.00      10.00
20      42.00      10.00      40.00     205.00     422.00      10.00
21      42.00      15.00      10.00     511.00     682.00      10.00
22      40.00       5.00      10.00     158.00     391.00      10.00
23      40.00      15.00      40.00     263.00     606.00      10.00
24      38.00       5.00      30.00      45.00     522.00      10.00
25      38.00      15.00      10.00     598.00     883.00      10.00
26      35.00       5.00      20.00     348.00     904.00      10.00
27      95.00      30.00      30.00     509.00     668.00      10.00
28      95.00      35.00      20.00      57.00     664.00      10.00
29      92.00      30.00      10.00      68.00     349.00      10.00
30      90.00      35.00      10.00     131.00     376.00      10.00
31      88.00      30.00      10.00     114.00     497.00      10.00
32      88.00      35.00      20.00     102.00     347.00      10.00
33      87.00      30.00      10.00     564.00     797.00      10.00
34      85.00      25.00      10.00      51.00     673.00      10.00
35      85.00      35.00      30.00     462.00     631.00      10.00
36      67.00      85.00      20.00     396.00     905.00      10.00
37      65.00      85.00      40.00      43.00     712.00      10.00
38      65.00      82.00      10.00     530.00     703.00      10.00
39      62.00      80.00      30.00     131.00     544.00      10.00
40      60.00      80.00      10.00      36.00     800.00      10.00
41      60.00      85.00      30.00     233.00     544.00      10.00
42      58.00      75.00      20.00     207.00     664.00      10.00
43      55.00      80.00      10.00      33.00     624.00      10.00
44      55.00      85.00      20.00     549.00     718.00      10.00
45      55.00      82.00      10.00      62.00     491.00      10.00
46      20.00      82.00      10.00      37.00     677.00      10.00
47      18.00      80.00      10.00     435.00     662.00      10.00
48       2.00      45.00      10.00      38.00     366.00      10.00
49      42.00       5.00      10.00     636.00     904.00      10.00
50      42.00      12.00      10.00     423.00     576.00      10.00
51      72.00      35.00      30.00     471.00     662.00      10.00
52      55.00      20.00      19.00     281.00     490.00      10.00
53      25.00      30.00       3.00     109.00     360.00      10.00
54      20.00      50.00       5.00     284.00     585.00      10.00
55      55.00      60.00      16.00     568.00     753.00      10.00
56      30.00      60.00      16.00     421.00     896.00      10.00
57      50.00      35.00      19.00     404.00     829.00      10.00
58      30.00      25.00      23.00     347.00     566.00      10.00
59      15.00      10.00      20.00     380.00     902.00      10.00
60      10.00      20.00      19.00      42.00     466.00      10.00
61      15.00      60.00      17.00     613.00     894.00      10.00
62      45.00      65.00       9.00     230.00     405.00      10.00
63      65.00      35.00       3.00      29.00     587.00      10.00
64      65.00      20.00       6.00      39.00     353.00      10.00
65      45.00      30.00      17.00      20.00     497.00      10.00
66      35.00      40.00      16.00      11.00     570.00      10.00
67      41.00      37.00      16.00     423.00     828.00      10.00
68      64.00      42.00       9.00     112.00     543.00      10.00
69      40.00      60.00      21.00     441.00     902.00      10.00
70      31.00      52.00      27.00       9.00     532.00      10.00
71      35.00      69.00      23.00     211.00     930.00      10.00
72      65.00      55.00      14.00     201.00     400.00      10.00
73      63.00      65.00       8.00      27.00     382.00      10.00
74       2.00      60.00       5.00     255.00     436.00      10.00
75      20.00      20.00       8.00     427.00     913.00      10.00
76       5.00       5.00      16.00     183.00     400.00      10.00
77      60.00      12.00      31.00     162.00     493.00      10.00
78      23.00       3.00       7.00     360.00     900.00      10.00
79       8.00      56.00      27.00     195.00     654.00      10.00
80       6.00      68.00      30.00     258.00     565.00      10.00
81      47.00      47.00      13.00     426.00     942.00      10.00
82      49.00      58.00      10.00     369.00     460.00      10.00
83      27.00      43.00       9.00      85.00     338.00      10.00
84      37.00      31.00      14.00      19.00     326.00      10.00
85      57.00      29.00      18.00     304.00     605.00      10.00
86      63.00      23.00       2.00     318.00     489.00      10.00
87      21.00      24.00      28.00     332.00     485.00      10.00
88      12.00      24.00      13.00     365.00     472.00      10.00
89      24.00      58.00      19.00     100.00     539.00      10.00
90      67.00       5.00      25.00     565.00     897.00      10.00
91      37.00      47.00       6.00     324.00     513.00      10.00
92      49.00      42.00      13.00     651.00     906.00      10.00
93      53.00      43.00      14.00      14.00     669.00      10.00
94      61.00      52.00       3.00     298.00     928.00      10.00
95      57.00      48.00      23.00     385.00     518.00      10.00
96      56.00      37.00       6.00      20.00     299.00      10.00
97      55.00      54.00      26.00     538.00     705.00      10.00
98       4.00      18.00      35.00     546.00     667.00      10.00
99      26.00      52.00       9.00     109.00     354.00      10.00
100      26.00      35.00      15.00     170.00     565.00      10.00
101      31.00      67.00       3.00     262.00     930.00      10.00